NAME : eil31-3
COMMENT : 31-city problem (Christofides/Eilon)
TYPE : CTSP
DIMENSION : 31
SALESMEN : 3
EDGE_WEIGHT_TYPE : EUC_2D
NODE_COORD_SECTION
1 42 41
2 5 25
3 20 26
4 7 38
5 17 33
6 12 42
7 52 33
8 58 27
9 48 28
10 61 33
11 51 31
12 16 57
13 57 58
14 8 52
15 42 57
16 25 55
17 40 30
18 37 52
19 52 41
20 31 32
21 49 49
22 38 46
23 25 32
24 45 35
25 62 42
26 21 47
27 30 48
28 30 40
29 56 37
30 58 48
31 32 39
CTSP_SET_SECTION
1 2 3 4 5 6 -1
2 7 8 9 10 11 -1
3 12 13 14 15 16 -1
DEPOT_SECTION
1
-1
EOF
